n = 3;
m = 3;
consecutive_high_days_allowed = 1;
high_regime_percentage = 80;
capacity = [600, 700, 450];
production_cost = [23, 13, 31];
demand = [| 610, 1490, 1040
          | 89, 52, 135
          | 97, 73, 89 |];
payment_per_mw = [40, 55, 45];
G = 50;
